smt_generation/outputs/case_0.model.txt
own_capital = 11109/10000
net_worth_ratio_prev2 = -1/50
capital_insufficient_plan_submitted = True
net_worth_ratio_prev1 = 0
risk_capital = 1
net_worth = 297/100
capital_insufficient_plan_executed = False
level_4_measures_done = False
level_3_measures_done = True
capital_insufficient = False
capital_significantly_insufficient = True
capital_adequate = False
penalty = False
level_3_measures_executed = True
capital_severely_insufficient = False
level_4_measures_executed = False
capital_level = 3
level_2_measures_executed = False
/0 = [else -> 11109/10000]